100
102
44 3
25 1
31 2
33 2
26 2
41 2
34 3
27 1
39 2
44 3
26 1
30 2
40 3
24 1
36 2
39 2
25 1
36 2
39 2
23 1
38 2
44 4
18 1
38 2
39 2
21 2
40 2
35 2
29 1
36 2
33 3
31 2
36 2
39 2
21 1
40 3
37 3
27 2
36 1
43 4
24 2
33 2
43 2
23 1
34 1
46 3
23 1
31 2
42 2
23 1
35 3
46 2
20 1
34 3
41 3
26 2
33 2
43 3
24 2
33 2
46 4
23 2
31 2
35 2
29 2
36 3
41 2
25 2
34 2
33 2
24 1
43 2
34 2
27 2
39 3
44 4
18 1
38 3
43 3
22 1
35 2
38 2
25 2
37 1
42 3
22 1
36 3
44 3
22 2
34 1
46 3
20 1
34 2
38 1
23 2
39 2
37 3
28 2
35 3
40 3
24 1
36 3
